trans_smt/code/def_fun_demo.smt2.out
sat
(
  (define-fun n () Int
    (- 1))
)
